(set-logic QF_S)
(declare-fun var0 () String)
(assert (RegexIn var0 (RegexConcat (RegexPlus (RegexPlus (Str2Reg "0"))) (RegexConcat (RegexStar (RegexStar (Str2Reg "1"))) (RegexConcat (RegexPlus (RegexStar (Str2Reg "22"))) (RegexConcat (RegexStar (RegexPlus (Str2Reg "33"))) (RegexConcat (RegexUnion (RegexStar (Str2Reg "4")) (RegexStar (Str2Reg "5"))) (RegexConcat (RegexPlus (RegexUnion (Str2Reg "66") (Str2Reg "777"))) (RegexConcat (RegexPlus (RegexStar (Str2Reg "8"))) (RegexConcat (RegexUnion (RegexUnion (Str2Reg "9") (Str2Reg "a")) (RegexUnion (Str2Reg "b") (Str2Reg "ccc"))) (RegexConcat (RegexPlus (RegexPlus (Str2Reg "ddd"))) (RegexConcat (RegexPlus (RegexUnion (Str2Reg "e") (Str2Reg "f"))) (RegexConcat (RegexPlus (RegexUnion (Str2Reg "ggg") (Str2Reg "hh"))) (RegexConcat (RegexPlus (RegexPlus (Str2Reg "i"))) (RegexConcat (RegexUnion (RegexStar (Str2Reg "jj")) (RegexStar (Str2Reg "kk"))) (RegexConcat (RegexPlus (RegexPlus (Str2Reg "l"))) (RegexConcat (RegexUnion (RegexStar (Str2Reg "mmm")) (RegexStar (Str2Reg "nn"))) (RegexConcat (RegexUnion (RegexUnion (Str2Reg "oo") (Str2Reg "pp")) (RegexUnion (Str2Reg "qqq") (Str2Reg "rrr"))) (RegexConcat (RegexUnion (RegexUnion (Str2Reg "s") (Str2Reg "t")) (RegexUnion (Str2Reg "uuu") (Str2Reg "vvv"))) (RegexConcat (RegexStar (RegexStar (Str2Reg "www"))) (RegexConcat (RegexPlus (RegexPlus (Str2Reg "xxx"))) (RegexConcat (RegexPlus (RegexStar (Str2Reg "yy"))) (RegexConcat (RegexPlus (RegexUnion (Str2Reg "zzz") (Str2Reg "A"))) (RegexConcat (RegexUnion (RegexUnion (Str2Reg "BBB") (Str2Reg "CC")) (RegexUnion (Str2Reg "D") (Str2Reg "E"))) (RegexConcat (RegexStar (RegexPlus (Str2Reg "FFF"))) (RegexConcat (RegexStar (RegexStar (Str2Reg "G"))) (RegexConcat (RegexUnion (RegexPlus (Str2Reg "HHH")) (RegexPlus (Str2Reg "I"))) (RegexConcat (RegexPlus (RegexPlus (Str2Reg "JJ"))) (RegexConcat (RegexPlus (RegexPlus (Str2Reg "K"))) (RegexConcat (RegexPlus (RegexUnion (Str2Reg "LLL") (Str2Reg "MM"))) (RegexConcat (RegexPlus (RegexPlus (Str2Reg "NNN"))) (RegexConcat (RegexStar (RegexUnion (Str2Reg "OO") (Str2Reg "P"))) (RegexConcat (RegexUnion (RegexStar (Str2Reg "QQQ")) (RegexStar (Str2Reg "RR"))) (RegexConcat (RegexPlus (RegexStar (Str2Reg "S"))) (RegexConcat (RegexUnion (RegexUnion (Str2Reg "TT") (Str2Reg "UU")) (RegexUnion (Str2Reg "VVV") (Str2Reg "W"))) (RegexConcat (RegexPlus (RegexUnion (Str2Reg "XX") (Str2Reg "YYY"))) (RegexConcat (RegexStar (RegexStar (Str2Reg "ZZ"))) (RegexConcat (RegexPlus (RegexStar (Str2Reg "!!"))) (RegexConcat (RegexPlus (RegexPlus (Str2Reg "\""))) (RegexConcat (RegexStar (RegexPlus (Str2Reg "##"))) (RegexConcat (RegexPlus (RegexPlus (Str2Reg "$$"))) (RegexConcat (RegexStar (RegexPlus (Str2Reg "%"))) (RegexConcat (RegexPlus (RegexStar (Str2Reg "&"))) (RegexConcat (RegexStar (RegexPlus (Str2Reg "'''"))) (RegexConcat (RegexPlus (RegexUnion (Str2Reg "(") (Str2Reg ")"))) (RegexConcat (RegexPlus (RegexPlus (Str2Reg "*"))) (RegexConcat (RegexUnion (RegexPlus (Str2Reg "+++")) (RegexPlus (Str2Reg ",,,"))) (RegexConcat (RegexUnion (RegexPlus (Str2Reg "---")) (RegexPlus (Str2Reg ".."))) (RegexConcat (RegexStar (RegexStar (Str2Reg "///"))) (RegexConcat (RegexUnion (RegexStar (Str2Reg "::")) (RegexStar (Str2Reg ";;;"))) (RegexConcat (RegexPlus (RegexStar (Str2Reg "<<"))) (RegexConcat (RegexPlus (RegexUnion (Str2Reg "===") (Str2Reg ">"))) (RegexConcat (RegexPlus (RegexUnion (Str2Reg "?") (Str2Reg "@@"))) (RegexConcat (RegexUnion (RegexUnion (Str2Reg "[[") (Str2Reg "\\\\")) (RegexUnion (Str2Reg "]") (Str2Reg "^^^"))) (RegexConcat (RegexPlus (RegexStar (Str2Reg "_"))) (RegexConcat (RegexPlus (RegexUnion (Str2Reg "``") (Str2Reg "{{"))) (RegexConcat (RegexStar (RegexPlus (Str2Reg "|"))) (RegexConcat (RegexPlus (RegexUnion (Str2Reg "}}}") (Str2Reg "~~"))) (RegexConcat (RegexPlus (RegexStar (Str2Reg "000"))) (RegexConcat (RegexPlus (RegexPlus (Str2Reg "111"))) (RegexConcat (RegexPlus (RegexUnion (Str2Reg "222") (Str2Reg "3"))) (RegexConcat (RegexPlus (RegexUnion (Str2Reg "444") (Str2Reg "5"))) (RegexConcat (RegexStar (RegexStar (Str2Reg "666"))) (RegexConcat (RegexPlus (RegexStar (Str2Reg "777"))) (RegexConcat (RegexUnion (RegexStar (Str2Reg "888")) (RegexStar (Str2Reg "99"))) (RegexConcat (RegexPlus (RegexStar (Str2Reg "a"))) (RegexConcat (RegexStar (RegexPlus (Str2Reg "bbb"))) (RegexConcat (RegexUnion (RegexUnion (Str2Reg "c") (Str2Reg "dd")) (RegexUnion (Str2Reg "ee") (Str2Reg "f"))) (RegexConcat (RegexUnion (RegexUnion (Str2Reg "gg") (Str2Reg "h")) (RegexUnion (Str2Reg "i") (Str2Reg "jj"))) (RegexConcat (RegexPlus (RegexUnion (Str2Reg "kkk") (Str2Reg "l"))) (RegexConcat (RegexPlus (RegexStar (Str2Reg "mm"))) (RegexConcat (RegexUnion (RegexUnion (Str2Reg "nnn") (Str2Reg "o")) (RegexUnion (Str2Reg "ppp") (Str2Reg "q"))) (RegexStar (RegexPlus (Str2Reg "rrr")))))))))))))))))))))))))))))))))))))))))))))))))))))))))))))))))))))))))))
(assert (not (RegexIn var0 (RegexConcat (RegexStar (RegexStar (Str2Reg "000"))) (RegexConcat (RegexStar (RegexStar (Str2Reg "11"))) (RegexConcat (RegexStar (RegexStar (Str2Reg "222"))) (RegexConcat (RegexUnion (RegexUnion (Str2Reg "333") (Str2Reg "4")) (RegexUnion (Str2Reg "555") (Str2Reg "66"))) (RegexConcat (RegexStar (RegexPlus (Str2Reg "777"))) (RegexConcat (RegexStar (RegexStar (Str2Reg "8"))) (RegexConcat (RegexStar (RegexUnion (Str2Reg "99") (Str2Reg "aa"))) (RegexConcat (RegexStar (RegexStar (Str2Reg "bbb"))) (RegexConcat (RegexStar (RegexStar (Str2Reg "ccc"))) (RegexConcat (RegexStar (RegexStar (Str2Reg "dd"))) (RegexConcat (RegexUnion (RegexUnion (Str2Reg "eee") (Str2Reg "ff")) (RegexUnion (Str2Reg "gg") (Str2Reg "h"))) (RegexConcat (RegexUnion (RegexUnion (Str2Reg "ii") (Str2Reg "jjj")) (RegexUnion (Str2Reg "kk") (Str2Reg "lll"))) (RegexConcat (RegexPlus (RegexPlus (Str2Reg "mmm"))) (RegexConcat (RegexStar (RegexStar (Str2Reg "nnn"))) (RegexConcat (RegexUnion (RegexPlus (Str2Reg "ooo")) (RegexPlus (Str2Reg "pp"))) (RegexConcat (RegexUnion (RegexStar (Str2Reg "qqq")) (RegexStar (Str2Reg "rrr"))) (RegexConcat (RegexUnion (RegexStar (Str2Reg "ss")) (RegexStar (Str2Reg "tt"))) (RegexConcat (RegexStar (RegexUnion (Str2Reg "uuu") (Str2Reg "vv"))) (RegexConcat (RegexUnion (RegexUnion (Str2Reg "www") (Str2Reg "xxx")) (RegexUnion (Str2Reg "yy") (Str2Reg "zzz"))) (RegexConcat (RegexPlus (RegexStar (Str2Reg "AAA"))) (RegexConcat (RegexStar (RegexPlus (Str2Reg "BB"))) (RegexConcat (RegexPlus (RegexStar (Str2Reg "C"))) (RegexConcat (RegexStar (RegexPlus (Str2Reg "DD"))) (RegexConcat (RegexUnion (RegexPlus (Str2Reg "EE")) (RegexPlus (Str2Reg "F"))) (RegexConcat (RegexUnion (RegexUnion (Str2Reg "GGG") (Str2Reg "H")) (RegexUnion (Str2Reg "I") (Str2Reg "JJ"))) (RegexConcat (RegexUnion (RegexPlus (Str2Reg "KK")) (RegexPlus (Str2Reg "L"))) (RegexConcat (RegexPlus (RegexStar (Str2Reg "MM"))) (RegexConcat (RegexStar (RegexPlus (Str2Reg "NN"))) (RegexConcat (RegexStar (RegexUnion (Str2Reg "OO") (Str2Reg "PPP"))) (RegexConcat (RegexStar (RegexUnion (Str2Reg "QQQ") (Str2Reg "RRR"))) (RegexConcat (RegexUnion (RegexStar (Str2Reg "SSS")) (RegexStar (Str2Reg "TTT"))) (RegexConcat (RegexPlus (RegexPlus (Str2Reg "U"))) (RegexConcat (RegexUnion (RegexUnion (Str2Reg "VVV") (Str2Reg "W")) (RegexUnion (Str2Reg "XX") (Str2Reg "Y"))) (RegexConcat (RegexStar (RegexUnion (Str2Reg "ZZZ") (Str2Reg "!!!"))) (RegexConcat (RegexUnion (RegexPlus (Str2Reg "\"\"\"")) (RegexPlus (Str2Reg "#"))) (RegexConcat (RegexStar (RegexPlus (Str2Reg "$$"))) (RegexConcat (RegexUnion (RegexStar (Str2Reg "%%%")) (RegexStar (Str2Reg "&&"))) (RegexConcat (RegexUnion (RegexStar (Str2Reg "''")) (RegexStar (Str2Reg "("))) (RegexConcat (RegexPlus (RegexPlus (Str2Reg "))"))) (RegexConcat (RegexStar (RegexPlus (Str2Reg "**"))) (RegexConcat (RegexUnion (RegexPlus (Str2Reg "++")) (RegexPlus (Str2Reg ",,"))) (RegexConcat (RegexStar (RegexStar (Str2Reg "---"))) (RegexConcat (RegexUnion (RegexStar (Str2Reg ".")) (RegexStar (Str2Reg "///"))) (RegexConcat (RegexStar (RegexStar (Str2Reg ":::"))) (RegexConcat (RegexUnion (RegexUnion (Str2Reg ";") (Str2Reg "<")) (RegexUnion (Str2Reg "===") (Str2Reg ">>"))) (RegexConcat (RegexStar (RegexUnion (Str2Reg "??") (Str2Reg "@@@"))) (RegexConcat (RegexStar (RegexStar (Str2Reg "[["))) (RegexConcat (RegexStar (RegexPlus (Str2Reg "\\\\"))) (RegexConcat (RegexStar (RegexStar (Str2Reg "]]"))) (RegexConcat (RegexStar (RegexPlus (Str2Reg "^^"))) (RegexConcat (RegexPlus (RegexPlus (Str2Reg "__"))) (RegexConcat (RegexPlus (RegexUnion (Str2Reg "``") (Str2Reg "{"))) (RegexConcat (RegexUnion (RegexPlus (Str2Reg "||")) (RegexPlus (Str2Reg "}"))) (RegexConcat (RegexPlus (RegexUnion (Str2Reg "~~") (Str2Reg "000"))) (RegexConcat (RegexStar (RegexUnion (Str2Reg "1") (Str2Reg "2"))) (RegexConcat (RegexPlus (RegexPlus (Str2Reg "3"))) (RegexConcat (RegexStar (RegexUnion (Str2Reg "4") (Str2Reg "5"))) (RegexConcat (RegexUnion (RegexStar (Str2Reg "66")) (RegexStar (Str2Reg "7"))) (RegexConcat (RegexPlus (RegexPlus (Str2Reg "8"))) (RegexConcat (RegexUnion (RegexStar (Str2Reg "99")) (RegexStar (Str2Reg "a"))) (RegexConcat (RegexStar (RegexStar (Str2Reg "bb"))) (RegexConcat (RegexUnion (RegexStar (Str2Reg "ccc")) (RegexStar (Str2Reg "d"))) (RegexConcat (RegexUnion (RegexUnion (Str2Reg "ee") (Str2Reg "fff")) (RegexUnion (Str2Reg "gg") (Str2Reg "hh"))) (RegexConcat (RegexUnion (RegexStar (Str2Reg "ii")) (RegexStar (Str2Reg "j"))) (RegexConcat (RegexStar (RegexUnion (Str2Reg "kk") (Str2Reg "lll"))) (RegexConcat (RegexPlus (RegexStar (Str2Reg "mmm"))) (RegexConcat (RegexPlus (RegexStar (Str2Reg "nn"))) (RegexConcat (RegexStar (RegexPlus (Str2Reg "oo"))) (RegexConcat (RegexStar (RegexPlus (Str2Reg "ppp"))) (RegexConcat (RegexStar (RegexPlus (Str2Reg "q"))) (RegexStar (RegexStar (Str2Reg "rr"))))))))))))))))))))))))))))))))))))))))))))))))))))))))))))))))))))))))))))
(check-sat)